3.0
5.0
5.0
3.0
3.0
3.0
4.0
4.0
4.0
4.0
5.0
3.0
3.0
3.0
4.0
3.0
3.0
4.0
5.0
4.0
3.0
3.0
3.0
3.0
2449.0
2456.0
2593.0
3016.0
2210.0
2695.0
4.0
3.0
4.0
3.0
4.0
5.0
3.0
3.0
4.0
3.0
4.0
4.0
3.0
4.0
2462.0
2460.0
2874.0
2458.0
2220.0
2312.0
2.0
3.0
3.0
3.0
3.0
3.0
2.0
3.0
3.0
4.0
3.0
3.0
3.0
4.0
2304.0
2302.0
2409.0
2450.0
2309.0
2284.0
4.0
4.0
4.0
4.0
4.0
4.0
4.0
4.0
4.0
4.0
3.0
3.0
3.0
2.0
2350.0
2312.0
2241.0
2278.0
2280.0
2281.0
3.0
3.0
2.0
3.0
3.0
3.0
3.0
3.0
2.0
2.0
3.0
3.0
3.0
3.0
2273.0
2288.0
2274.0
2288.0
2276.0
2286.0
3.0
3.0
2.0
3.0
3.0
3.0
2.0
3.0
3.0
3.0
2.0
3.0
3.0
3.0
2296.0
2269.0
2274.0
2265.0
2245.0
2257.0
3.0
2.0
3.0
3.0
3.0
2.0
3.0
3.0
2.0
3.0
3.0
2.0
2.0
3.0
2250.0
2254.0
2282.0
2273.0
2246.0
2258.0
3.0
2.0
3.0
3.0
3.0
2.0
3.0
3.0
2.0
3.0
3.0
3.0
3.0
2.0
2256.0
2251.0
2259.0
2260.0
2296.0
2269.0
3.0
3.0
2.0
2.0
3.0
3.0
3.0
2.0
3.0
3.0
3.0
2.0
3.0
3.0
2300.0
2296.0
2299.0
2289.0
2279.0
2287.0
3.0
3.0
2.0
3.0
3.0
3.0
2.0
3.0
3.0
3.0
2.0
2.0
3.0
3.0
2275.0
2270.0
2236.0
2220.0
2184.0
2183.0
4.0
4.0
4.0
3.0
3.0
3.0
3.0
4.0
4.0
4.0
2.0
2.0
3.0
3.0
4.0
4.0
4.0
4.0
4.0
4.0
3.0
3.0
2.0
3.0
2.0
4.0
3.0
4.0
3.0
4.0
3.0
4.0
4.0
5.0
3.0
2.0
2.0
2.0
4.0
4.0
5.0
3.0
3.0
3.0
5.0
4.0
4.0
3.0
2.0
2.0
2.0
4.0
4.0
4.0
3.0
4.0
4.0
4.0
3.0
3.0
3.0
2.0
2.0
4.0
4.0
2.0
4.0
2.0
4.0
4.0
4.0
2.0
3.0
3.0
2.0
4.0
4.0
3.0
5.0
2.0
3.0
3.0
4.0
5.0
5.0
2.0
3.0
2.0
2.0
4.0
5.0
4.0
3.0
5.0
4.0
2.0
3.0
3.0
4.0
2.0
3.0
4.0
4.0
2.0
2.0
4.0
4.0
4.0
3.0
4.0
2.0
3.0
3.0
4.0
4.0
2.0
4.0
3.0
2.0
2.0
4.0
4.0
4.0
3.0
2.0
3.0
3.0
4.0
4.0
5.0
2.0
4.0
4.0
3.0
2.0
2.0
6.0
3.0
3.0
6.0
2490.0
2222.0
2322.0
2555.0
2379.0
2493.0
2330.0
2332.0
2538.0
2290.0
2211.0
2268.0
2244.0
2267.0
2265.0
2289.0
2267.0
2269.0
2261.0
2262.0
2286.0
2254.0
2235.0
2226.0
2226.0
2417.0
2306.0
2282.0
2277.0
2278.0
2254.0
2253.0
2255.0
2250.0
2244.0
2254.0
2298.0
2246.0
2319.0
2286.0
2269.0
2294.0
2249.0
2303.0
2271.0
2266.0
2240.0
2324.0
2276.0
2302.0
2274.0
2234.0
2269.0
2267.0
2265.0
2261.0
2288.0
2279.0
2309.0
2300.0
2.0
3.0
2.0
2.0
3.0
2.0
2.0
2.0
3.0
2.0
2.0
2.0
3.0
2.0
2.0
2.0
3.0
22.0
22.0
3.0
3.0
2.0
2.0
3.0
2.0
2.0
3.0
2.0
2.0
3.0
3.0
2.0
2.0
3.0
3.0
2.0
2.0
3.0
2.0
2.0
3.0
3.0
2.0
2.0
3.0
2.0
2.0
2.0
2.0
3.0
2.0
2.0
2.0
2.0
3.0
2.0
2.0
2.0
2.0
2.0
2.0
2.0
2.0
3.0
3.0
3.0
2.0
2.0
2.0
2.0
3.0
2.0
2.0
2.0
2.0
2.0
2.0
2.0
2.0
3.0
3.0
3.0
2.0
2.0
2.0
2.0
3.0
2.0
2.0
2.0
2.0
2.0
2.0
2.0
2.0
2.0
3.0
3.0
2.0
2.0
2.0
2.0
2.0
3.0
2.0
3.0
2.0
2.0
2.0
3.0
2.0
2.0
2.0
2.0
2.0
2.0
3.0
3.0
3.0
2.0
3.0
2.0
2.0
2.0
2.0
2.0
2.0
2.0
2.0
2.0
2.0
2.0
2.0
2.0
3.0
2.0
3.0
3.0
3.0
2.0
2289.0
2280.0
2270.0
2283.0
2279.0
2272.0
2287.0
2282.0
2280.0
2271.0
2278.0
2277.0
2287.0
2281.0
2287.0
2250.0
2269.0
2273.0
2272.0
2267.0
2288.0
2272.0
2349.0
2287.0
2343.0
2256.0
2290.0
2297.0
2285.0
2310.0
2256.0
2312.0
2308.0
2274.0
2300.0
2270.0
2282.0
2269.0
2306.0
2290.0
2318.0
2250.0
2258.0
2273.0
2244.0
2276.0
2287.0
2275.0
2284.0
2270.0
2267.0
2264.0
2248.0
2281.0
2268.0
2280.0
2281.0
2257.0
2270.0
2269.0
2.0
2.0
3.0
2.0
2.0
2.0
2.0
3.0
2.0
2.0
2.0
3.0
2.0
2.0
2.0
2.0
2.0
2.0
3.0
3.0
2.0
2.0
2.0
3.0
2.0
2.0
2.0
2.0
3.0
2.0
2.0
2.0
2.0
2.0
2.0
3.0
2.0
2.0
2.0
3.0
3.0
2.0
2.0
2.0
3.0
2.0
2.0
2.0
2.0
2.0
2.0
3.0
3.0
2.0
2.0
2.0
3.0
2.0
2.0
2.0
2.0
3.0
2.0
3.0
2.0
2.0
2.0
2.0
2.0
2.0
2.0
2.0
3.0
3.0
2.0
2.0
2.0
3.0
2.0
2.0
2.0
2.0
2.0
3.0
2.0
3.0
3.0
2.0
2.0
2.0
2.0
2.0
3.0
2.0
2.0
2.0
2.0
2.0
2.0
3.0
2.0
2.0
3.0
3.0
2.0
3.0
2.0
2.0
2.0
2.0
2.0
3.0
2.0
2.0
3.0
2.0
2.0
3.0
3.0
2.0
2.0
2.0
2.0
2.0
2.0
3.0
3.0
2.0
2.0
2.0
2.0
2.0
2.0
2.0
3.0
2.0
2.0
3.0
3.0
2.0
2272.0
2255.0
2280.0
2246.0
2282.0
2264.0
2257.0
2241.0
2256.0
2248.0
2235.0
2269.0
2243.0
2279.0
2260.0
2264.0
2258.0
2256.0
2268.0
2253.0
2248.0
2267.0
2241.0
2248.0
2263.0
2267.0
2252.0
2259.0
2255.0
2253.0
2275.0
2326.0
2272.0
2272.0
2274.0
2327.0
2276.0
2286.0
2312.0
2301.0
2238.0
2243.0
2272.0
2248.0
2258.0
2265.0
2258.0
2258.0
2277.0
2248.0
2263.0
2264.0
2267.0
2286.0
2268.0
2270.0
2271.0
2287.0
2263.0
2255.0
2.0
3.0
2.0
2.0
2.0
3.0
2.0
2.0
3.0
2.0
2.0
2.0
3.0
2.0
2.0
3.0
2.0
2.0
2.0
3.0
2.0
2.0
2.0
3.0
3.0
2.0
2.0
2.0
2.0
3.0
2.0
2.0
3.0
2.0
2.0
2.0
2.0
3.0
2.0
2.0
3.0
2.0
2.0
2.0
2.0
3.0
3.0
2.0
2.0
2.0
2.0
3.0
2.0
2.0
3.0
2.0
2.0
2.0
2.0
2.0
3.0
3.0
3.0
2.0
2.0
2.0
2.0
2.0
2.0
2.0
2.0
2.0
2.0
3.0
2.0
2.0
2.0
2.0
2.0
2.0
2.0
3.0
2.0
2.0
3.0
2.0
3.0
2.0
3.0
2.0
2.0
2.0
2.0
2.0
2.0
3.0
2.0
2.0
2.0
2.0
2.0
3.0
3.0
2.0
3.0
2.0
2.0
2.0
3.0
2.0
2.0
2.0
2.0
2.0
2.0
3.0
2.0
2.0
2.0
3.0
2.0
3.0
2.0
2.0
2.0
2.0
2.0
2.0
2.0
2.0
2.0
2.0
2.0
2.0
2.0
3.0
2.0
3.0
2.0
3.0
2256.0
2253.0
2246.0
2250.0
2256.0
2256.0
2262.0
2265.0
2253.0
2263.0
2255.0
2257.0
2265.0
2256.0
2250.0
2262.0
2264.0
2246.0
2259.0
2271.0
2260.0
2270.0
2253.0
2241.0
2253.0
2251.0
2261.0
2259.0
2265.0
2251.0
2241.0
2242.0
2250.0
2252.0
2258.0
2265.0
2245.0
2266.0
2272.0
2244.0
2266.0
2272.0
2313.0
2300.0
2347.0
2292.0
2287.0
2300.0
2297.0
2317.0
2264.0
2257.0
2245.0
2294.0
2253.0
2285.0
2283.0
2332.0
2296.0
2299.0
2.0
2.0
2.0
3.0
3.0
2.0
2.0
2.0
2.0
3.0
2.0
2.0
3.0
2.0
2.0
2.0
2.0
3.0
3.0
2.0
2.0
2.0
2.0
3.0
2.0
2.0
3.0
2.0
2.0
3.0
2.0
2.0
2.0
2.0
2.0
3.0
2.0
2.0
2.0
3.0
3.0
2.0
2.0
2.0
2.0
2.0
2.0
3.0
3.0
2.0
2.0
2.0
3.0
2.0
2.0
2.0
2.0
2.0
2.0
2.0
2.0
2.0
2.0
2.0
3.0
2.0
2.0
2.0
3.0
3.0
2.0
2.0
2.0
2.0
2.0
2.0
3.0
2.0
3.0
2.0
3.0
2.0
2.0
2.0
2.0
2.0
2.0
2.0
3.0
2.0
3.0
2.0
2.0
2.0
2.0
2.0
2.0
2.0
2.0
2.0
3.0
2.0
3.0
2.0
2.0
2.0
2.0
2.0
3.0
2.0
2.0
3.0
2.0
2.0
2.0
2.0
2.0
2.0
3.0
3.0
2.0
2.0
2.0
2.0
2.0
2.0
2.0
3.0
2.0
2.0
2.0
3.0
2.0
2.0
18.0
19.0
17.0
18.0
18.0
2.0
2277.0
2282.0
2279.0
2303.0
2269.0
2296.0
2288.0
2282.0
2246.0
2259.0
2256.0
2252.0
2252.0
2245.0
2286.0
2299.0
2260.0
2297.0
2249.0
2242.0
2247.0
2252.0
2254.0
2250.0
2263.0
2262.0
2321.0
2253.0
2283.0
2258.0
2249.0
2238.0
2250.0
2224.0
2275.0
2296.0
2286.0
2257.0
2245.0
2306.0
2306.0
2279.0
2297.0
2304.0
2316.0
2303.0
2292.0
2306.0
2301.0
2300.0
2243.0
2251.0
2271.0
2257.0
2298.0
2304.0
2261.0
2308.0
2273.0
2277.0
2.0
3.0
2.0
2.0
2.0
2.0
2.0
2.0
2.0
2.0
2.0
2.0
2.0
2.0
3.0
2.0
2.0
3.0
2.0
2.0
2.0
2.0
3.0
2.0
2.0
3.0
2.0
2.0
2.0
2.0
3.0
3.0
2.0
2.0
2.0
2.0
2.0
2.0
2.0
2.0
2.0
3.0
2.0
2.0
3.0
2.0
3.0
3.0
2.0
2.0
2.0
2.0
2.0
2.0
2.0
2.0
2.0
2.0
2.0
2.0
3.0
2.0
3.0
2.0
2.0
2.0
2.0
2.0
2.0
3.0
2.0
2.0
2.0
2.0
2.0
3.0
3.0
2.0
3.0
2.0
2.0
2.0
2.0
2.0
2.0
3.0
2.0
2.0
2.0
2.0
2.0
3.0
3.0
2.0
3.0
2.0
2.0
2.0
2.0
2.0
2.0
3.0
2.0
2.0
2.0
2.0
2.0
2.0
3.0
2.0
3.0
2.0
2.0
2.0
2.0
2.0
2.0
2.0
2.0
5.0
5.0
5.0
5.0
4.0
4.0
5.0
6.0
5.0
5.0
6.0
5.0
4.0
5.0
5.0
5.0
5.0
4.0
5.0
5.0
5.0
2246.0
2242.0
2249.0
2240.0
2261.0
2280.0
2243.0
2260.0
2293.0
2268.0
2247.0
2242.0
2251.0
2257.0
2269.0
2262.0
2272.0
2294.0
2324.0
2326.0
2323.0
2292.0
2298.0
2312.0
2304.0
2312.0
2305.0
2245.0
2269.0
2258.0
2246.0
2234.0
2275.0
2249.0
2260.0
2256.0
2269.0
2268.0
2255.0
2273.0
2266.0
2252.0
2263.0
2290.0
2262.0
2275.0
2266.0
2307.0
2296.0
2288.0
2276.0
2296.0
2309.0
2303.0
2351.0
2319.0
2314.0
2345.0
2333.0
2333.0
2.0
2.0
2.0
2.0
3.0
2.0
2.0
2.0
3.0
2.0
2.0
2.0
3.0
2.0
2.0
2.0
2.0
3.0
2.0
2.0
2.0
2.0
3.0
2.0
2.0
3.0
2.0
2.0
2.0
2.0
3.0
2.0
2.0
3.0
2.0
25.0
25.0
2.0
3.0
3.0
2.0
2.0
2.0
3.0
3.0
3.0
2.0
2.0
2.0
3.0
3.0
2.0
2.0
2.0
3.0
3.0
2.0
2.0
3.0
2.0
3.0
2.0
2.0
2.0
3.0
3.0
2.0
2.0
2.0
3.0
3.0
3.0
2.0
2.0
2.0
2.0
2.0
2.0
3.0
2.0
2.0
2.0
2.0
3.0
2.0
2.0
2.0
3.0
2.0
2.0
2.0
2.0
3.0
2.0
2.0
2.0
2.0
3.0
3.0
3.0
2.0
2.0
2.0
2.0
2.0
2.0
2.0
2.0
3.0
2.0
2.0
2.0
2.0
3.0
3.0
3.0
2.0
2.0
2.0
2.0
2.0
2.0
2.0
2.0
3.0
2.0
2.0
3.0
2.0
3.0
3.0
2.0
2.0
2.0
2.0
2.0
2.0
2.0
2.0
2.0
2269.0
2265.0
2266.0
2225.0
2256.0
2276.0
2265.0
2264.0
2283.0
2288.0
2225.0
2259.0
2237.0
2251.0
2234.0
2261.0
2253.0
2268.0
2264.0
2284.0
2228.0
2235.0
2252.0
2230.0
2237.0
2258.0
2301.0
2302.0
2302.0
2305.0
2266.0
2260.0
2285.0
2278.0
2284.0
2298.0
2253.0
2269.0
2257.0
2256.0
2236.0
2231.0
2286.0
2232.0
2244.0
2238.0
2242.0
2267.0
2255.0
2260.0
2261.0
2257.0
2262.0
2277.0
2272.0
2302.0
2294.0
2354.0
2333.0
2302.0
2.0
3.0
2.0
3.0
2.0
2.0
3.0
2.0
3.0
2.0
2.0
3.0
2.0
3.0
2.0
2.0
3.0
2.0
2.0
3.0
3.0
2.0
2.0
2.0
2.0
2.0
2.0
3.0
2.0
2.0
3.0
2.0
2.0
2.0
2.0
3.0
3.0
2.0
2.0
2.0
3.0
3.0
2.0
2.0
2.0
2.0
2.0
3.0
3.0
2.0
2.0
2.0
2.0
3.0
2.0
2.0
3.0
3.0
2.0
2.0
2.0
2.0
2.0
3.0
3.0
2.0
2.0
2.0
2.0
2.0
2.0
2.0
2.0
2.0
3.0
3.0
3.0
2.0
2.0
2.0
2.0
2.0
2.0
2.0
2.0
3.0
3.0
3.0
2.0
2.0
2.0
2.0
2.0
3.0
2.0
3.0
2.0
3.0
2.0
2.0
2.0
2.0
3.0
2.0
2.0
2.0
2.0
3.0
2.0
2.0
2.0
3.0
2.0
2.0
2.0
2.0
2.0
3.0
3.0
3.0
2.0
2.0
2.0
2.0
2.0
2.0
3.0
2.0
2.0
2.0
2.0
3.0
3.0
2.0
3.0
2.0
2.0
2.0
2.0
2.0
2276.0
2282.0
2291.0
2283.0
2283.0
2269.0
2276.0
2270.0
2278.0
2267.0
2247.0
2256.0
2263.0
2253.0
2265.0
2251.0
2265.0
2275.0
2245.0
2272.0
2245.0
2249.0
2240.0
2242.0
2248.0
2297.0
2301.0
2295.0
2310.0
2318.0
2302.0
2293.0
2303.0
2301.0
2285.0
2261.0
2266.0
2263.0
2264.0
2258.0
2251.0
2239.0
2267.0
2229.0
2256.0
2251.0
2272.0
2274.0
2261.0
2266.0
2246.0
2237.0
2264.0
2258.0
2262.0
2272.0
2265.0
2265.0
2277.0
2280.0
2.0
2.0
2.0
3.0
3.0
2.0
2.0
2.0
2.0
3.0
2.0
2.0
3.0
2.0
2.0
2.0
2.0
3.0
2.0
2.0
3.0
2.0
2.0
2.0
2.0
3.0
2.0
2.0
2.0
2.0
3.0
2.0
3.0
2.0
2.0
2.0
2.0
2.0
2.0
2.0
2.0
2.0
3.0
2.0
3.0
2.0
3.0
2.0
2.0
2.0
2.0
3.0
2.0
3.0
2.0
2.0
2.0
2.0
3.0
2.0
3.0
2.0
2.0
2.0
2.0
2.0
2.0
2.0
2.0
3.0
2.0
3.0
2.0
2.0
3.0
2.0
3.0
2.0
2.0
2.0
2.0
2.0
2.0
3.0
3.0
2.0
2.0
3.0
2.0
2.0
2.0
2.0
2.0
2.0
2.0
3.0
2.0
2.0
3.0
3.0
2.0
2.0
3.0
2.0
2.0
2.0
3.0
2.0
2.0
2.0
2.0
2.0
2.0
2.0
2.0
3.0
2.0
2.0
3.0
3.0
2.0
2.0
3.0
2.0
2.0
2.0
3.0
2.0
2.0
2.0
2.0
2.0
2.0
2.0
2.0
3.0
2.0
2.0
3.0
3.0
2298.0
2272.0
2286.0
2272.0
2307.0
2299.0
2273.0
2298.0
2289.0
2264.0
2240.0
2244.0
2289.0
2289.0
2278.0
2293.0
2305.0
2310.0
2306.0
2287.0
2282.0
2304.0
2231.0
2296.0
2253.0
2247.0
2290.0
2253.0
2271.0
2248.0
2238.0
2239.0
2237.0
2249.0
2241.0
2247.0
2263.0
2280.0
2249.0
2262.0
2271.0
2280.0
2263.0
2303.0
2312.0
2300.0
2306.0
2269.0
2285.0
2297.0
2234.0
2251.0
2240.0
2258.0
2288.0
2292.0
2319.0
2283.0
2307.0
2296.0
2.0
2.0
3.0
2.0
2.0
3.0
2.0
2.0
2.0
3.0
2.0
2.0
2.0
2.0
3.0
3.0
2.0
2.0
2.0
2.0
2.0
2.0
2.0
2.0
2.0
3.0
3.0
2.0
2.0
2.0
2.0
2.0
2.0
2.0
3.0
3.0
3.0
2.0
2.0
2.0
2.0
2.0
2.0
2.0
2.0
2.0
3.0
3.0
3.0
2.0
2.0
2.0
2.0
2.0
2.0
2.0
2.0
2.0
3.0
3.0
3.0
2.0
2.0
2.0
2.0
2.0
2.0
2.0
2.0
2.0
3.0
3.0
3.0
2.0
2.0
2.0
2.0
2.0
2.0
3.0
2.0
2.0
2.0
3.0
3.0
2.0
2.0
2.0
2.0
2.0
2.0
3.0
2.0
2.0
2.0
3.0
2.0
2.0
2.0
2.0
3.0
2.0
2.0
2.0
2.0
2.0
2.0
3.0
3.0
2.0
2.0
2.0
3.0
2.0
2.0
2.0
2.0
2.0
2.0
3.0
2.0
2.0
2.0
2.0
2.0
2.0
2.0
2.0
2.0
2.0
2.0
3.0
3.0
2.0
2.0
2.0
2.0
2.0
3.0
2.0
2291.0
2302.0
2288.0
2289.0
2236.0
2242.0
2274.0
2245.0
2277.0
2287.0
2296.0
2263.0
2325.0
2285.0
2334.0
2283.0
2337.0
2283.0
2304.0
2305.0
2245.0
2236.0
2255.0
2240.0
2241.0
2258.0
2292.0
2291.0
2296.0
2310.0
2296.0
2281.0
2292.0
2279.0
2284.0
2300.0
2250.0
2257.0
2264.0
2256.0
2293.0
2260.0
2242.0
2264.0
2276.0
2295.0
2274.0
2276.0
2296.0
2284.0
2251.0
2245.0
2244.0
2253.0
2242.0
2249.0
2252.0
2219.0
2234.0
2219.0
